3331 25121
28200 64911
2103 8124
17544 17322
43099 21218
26077 47985
16328 15854
43762 4750
53523 50879
17929 17117
11215 17952
19742 4111
62320 58375
1822 63428
64393 2785
22831 16379
59962 30397
59924 53492
9858 58541
24828 19674
24239 41903
8030 43969
64966 7306
6125 3313
27035 26940
3079 7745
19345 215
47312 48165
47730 28114
18137 7047
14963 53166
15996 14821
5444 12815
17425 61418
22810 34395
33742 11857
25732 33487
12242 45628
52873 54201
29381 23111
30235 36809
49650 42308
56480 12111
